\* location_problem *\
Minimize
OBJ: 3.16227766017 x_1_2 + 2.2360679775 x_1_3 + 3.60555127546 x_1_4 + 4 x_1_5
 + 3.16227766017 x_2_1 + 2.2360679775 x_2_3 + 2.2360679775 x_2_4
 + 4.24264068712 x_2_5 + 2.2360679775 x_3_1 + 2.2360679775 x_3_2
 + 1.41421356237 x_3_4 + 2.2360679775 x_3_5 + 3.60555127546 x_4_1
 + 2.2360679775 x_4_2 + 1.41421356237 x_4_3 + 2.2360679775 x_4_5 + 4 x_5_1
 + 4.24264068712 x_5_2 + 2.2360679775 x_5_3 + 2.2360679775 x_5_4 + 10 y_1
 + 10 y_2 + 10 y_3 + 10 y_4 + 10 y_5
Subject To
_C1: x_1_1 + x_1_2 + x_1_3 + x_1_4 + x_1_5 = 1
_C10: x_1_5 + x_2_5 + x_3_5 + x_4_5 + x_5_5 - 3 y_5 <= 0
_C2: x_2_1 + x_2_2 + x_2_3 + x_2_4 + x_2_5 = 1
_C3: x_3_1 + x_3_2 + x_3_3 + x_3_4 + x_3_5 = 1
_C4: x_4_1 + x_4_2 + x_4_3 + x_4_4 + x_4_5 = 1
_C5: x_5_1 + x_5_2 + x_5_3 + x_5_4 + x_5_5 = 1
_C6: x_1_1 + x_2_1 + x_3_1 + x_4_1 + x_5_1 - 3 y_1 <= 0
_C7: x_1_2 + x_2_2 + x_3_2 + x_4_2 + x_5_2 - 3 y_2 <= 0
_C8: x_1_3 + x_2_3 + x_3_3 + x_4_3 + x_5_3 - 3 y_3 <= 0
_C9: x_1_4 + x_2_4 + x_3_4 + x_4_4 + x_5_4 - 3 y_4 <= 0
Binaries
x_1_1
x_1_2
x_1_3
x_1_4
x_1_5
x_2_1
x_2_2
x_2_3
x_2_4
x_2_5
x_3_1
x_3_2
x_3_3
x_3_4
x_3_5
x_4_1
x_4_2
x_4_3
x_4_4
x_4_5
x_5_1
x_5_2
x_5_3
x_5_4
x_5_5
y_1
y_2
y_3
y_4
y_5
End
